p cnf 150 200
-6 17 25 51 0
-6 17 25 -51 0
-17 25 41 52 0
-17 25 41 -52 0
-17 25 -41 53 0
-17 25 -41 -53 0
-6 29 40 54 0
-6 29 40 -54 0
-25 29 -40 55 0
-25 29 -40 -55 0
-25 -29 37 56 0
-25 -29 37 -56 0
-6 -29 -37 57 0
-6 -29 -37 -57 0
6 12 39 58 0
6 12 39 -58 0
10 -39 47 59 0
10 -39 47 -59 0
-10 12 47 60 0
-10 12 47 -60 0
6 12 -39 61 0
6 12 -39 -61 0
6 -12 24 62 0
6 -12 24 -62 0
-12 -24 -39 63 0
-12 -24 -39 -63 0
-12 -24 38 64 0
-12 -24 38 -64 0
-22 -24 -38 65 0
-22 -24 -38 -65 0
16 -38 39 66 0
16 -38 39 -66 0
-11 -16 -38 67 0
-11 -16 -38 -67 0
11 -16 42 68 0
11 -16 42 -68 0
5 -16 -42 69 0
5 -16 -42 -69 0
-5 -42 -45 70 0
-5 -42 -45 -70 0
-5 -10 -42 71 0
-5 -10 -42 -71 0
4 42 45 72 0
4 42 45 -72 0
4 -5 45 73 0
4 -5 45 -73 0
3 -4 45 74 0
3 -4 45 -74 0
-3 -30 33 75 0
-3 -30 33 -75 0
-4 -30 -33 76 0
-4 -30 -33 -76 0
-3 -4 23 77 0
-3 -4 23 -77 0
-3 -23 -31 78 0
-3 -23 -31 -78 0
11 -14 30 79 0
11 -14 30 -79 0
-11 -14 30 80 0
-11 -14 30 -80 0
14 -19 -23 81 0
14 -19 -23 -81 0
14 19 -25 82 0
14 19 -25 -82 0
14 19 21 83 0
14 19 21 -83 0
13 -20 -21 84 0
13 -20 -21 -84 0
-13 19 -20 85 0
-13 19 -20 -85 0
15 20 44 86 0
15 20 44 -86 0
15 20 48 87 0
15 20 48 -87 0
20 -21 -48 88 0
20 -21 -48 -88 0
15 -27 -48 89 0
15 -27 -48 -89 0
-15 -21 34 90 0
-15 -21 34 -90 0
-8 -15 -34 91 0
-8 -15 -34 -91 0
11 -13 -15 92 0
11 -13 -15 -92 0
-11 -13 -34 93 0
-11 -13 -34 -93 0
8 30 -37 94 0
8 30 -37 -94 0
8 -30 -34 95 0
8 -30 -34 -95 0
8 13 35 96 0
8 13 35 -96 0
1 13 23 97 0
1 13 23 -97 0
1 -23 -35 98 0
1 -23 -35 -98 0
-1 10 40 99 0
-1 10 40 -99 0
-1 -10 -35 100 0
-1 -10 -35 -100 0
-1 -35 47 101 0
-1 -35 47 -101 0
-40 43 -47 102 0
-40 43 -47 -102 0
-43 -47 -48 103 0
-43 -47 -48 -103 0
27 -33 -47 104 0
27 -33 -47 -104 0
-27 -33 -43 105 0
-27 -33 -43 -105 0
-43 44 48 106 0
-43 44 48 -106 0
-17 -44 48 107 0
-17 -44 48 -107 0
-2 17 28 108 0
-2 17 28 -108 0
-2 17 -28 109 0
-2 17 -28 -109 0
22 -28 -44 110 0
22 -28 -44 -110 0
2 -22 -28 111 0
2 -22 -28 -111 0
26 31 46 112 0
26 31 46 -112 0
2 26 -31 113 0
2 26 -31 -113 0
2 26 -46 114 0
2 26 -46 -114 0
-7 -26 28 115 0
-7 -26 28 -115 0
-26 28 -41 116 0
-26 28 -41 -116 0
-26 41 49 117 0
-26 41 49 -117 0
36 41 -49 118 0
36 41 -49 -118 0
-29 -36 -49 119 0
-29 -36 -49 -119 0
18 -36 -49 120 0
18 -36 -49 -120 0
-18 37 46 121 0
-18 37 46 -121 0
-36 -37 46 122 0
-36 -37 46 -122 0
9 -18 -46 123 0
9 -18 -46 -123 0
-9 -18 32 124 0
-9 -18 32 -124 0
31 -46 -50 125 0
31 -46 -50 -125 0
-32 44 -50 126 0
-32 44 -50 -126 0
-31 -44 -50 127 0
-31 -44 -50 -127 0
-32 36 40 128 0
-32 36 40 -128 0
-9 27 -32 129 0
-9 27 -32 -129 0
-9 27 -40 130 0
-9 27 -40 -130 0
16 43 50 131 0
16 43 50 -131 0
3 18 -19 132 0
3 18 -19 -132 0
-20 33 37 133 0
-20 33 37 -133 0
9 34 42 134 0
9 34 42 -134 0
-7 -22 -41 135 0
-7 -22 -41 -135 0
-7 31 33 136 0
-7 31 33 -136 0
21 34 43 137 0
21 34 43 -137 0
7 49 50 138 0
7 49 50 -138 0
-8 35 36 139 0
-8 35 36 -139 0
-8 22 38 140 0
-8 22 38 -140 0
9 39 -45 141 0
9 39 -45 -141 0
21 24 -45 142 0
21 24 -45 -142 0
1 3 10 143 0
1 3 10 -143 0
-14 29 35 144 0
-14 29 35 -144 0
23 32 50 145 0
23 32 50 -145 0
4 5 18 146 0
4 5 18 -146 0
-2 -27 32 147 0
-2 -27 32 -147 0
7 24 49 148 0
7 24 49 -148 0
5 7 38 149 0
5 7 38 -149 0
16 -19 22 150 0
16 -19 22 -150 0

